c FILE: i080-111

c SOURCE: From steinlib

c DESCRIPTION: Steinlib instance with 80 nodes and 350 edges.

p edge 80 350
e 1 15
e 1 19
e 1 29
e 1 32
e 1 33
e 1 35
e 1 41
e 1 46
e 1 54
e 1 58
e 1 77
e 2 16
e 2 21
e 2 22
e 2 61
e 2 76
e 2 79
e 3 11
e 3 45
e 3 52
e 3 62
e 4 6
e 4 19
e 4 37
e 4 54
e 4 71
e 4 72
e 4 78
e 5 6
e 5 14
e 5 28
e 5 33
e 5 43
e 5 51
e 5 69
e 5 75
e 5 77
e 6 30
e 6 40
e 6 43
e 6 65
e 6 72
e 7 10
e 7 27
e 7 30
e 7 34
e 7 56
e 7 68
e 8 54
e 8 58
e 8 62
e 9 26
e 9 27
e 9 29
e 9 54
e 9 67
e 9 68
e 9 71
e 9 72
e 10 11
e 10 12
e 10 16
e 10 27
e 10 40
e 10 47
e 10 58
e 10 60
e 10 62
e 10 71
e 10 76
e 11 18
e 11 20
e 11 41
e 11 44
e 11 51
e 11 53
e 11 57
e 11 63
e 11 64
e 11 67
e 11 77
e 11 79
e 12 18
e 12 31
e 12 46
e 12 48
e 12 50
e 12 62
e 12 69
e 12 71
e 13 16
e 13 36
e 13 45
e 13 51
e 13 80
e 14 16
e 14 29
e 14 36
e 14 45
e 14 56
e 14 59
e 14 62
e 14 69
e 14 73
e 15 22
e 15 31
e 15 32
e 15 39
e 15 47
e 15 51
e 15 61
e 15 68
e 15 76
e 15 79
e 16 20
e 16 34
e 16 43
e 16 48
e 16 52
e 16 56
e 16 58
e 16 76
e 17 22
e 17 34
e 17 70
e 17 78
e 18 19
e 18 27
e 18 29
e 18 32
e 18 35
e 18 48
e 18 49
e 18 76
e 19 22
e 19 29
e 19 31
e 19 38
e 19 42
e 19 53
e 19 57
e 19 63
e 19 72
e 19 77
e 20 35
e 20 37
e 20 39
e 20 47
e 20 71
e 20 73
e 21 22
e 21 30
e 21 33
e 21 40
e 21 49
e 21 56
e 21 66
e 21 71
e 21 79
e 22 26
e 22 34
e 22 52
e 22 60
e 22 65
e 22 71
e 22 80
e 23 29
e 23 44
e 23 55
e 23 57
e 24 31
e 24 36
e 24 47
e 24 53
e 24 55
e 24 75
e 25 31
e 25 51
e 25 77
e 25 78
e 25 79
e 26 45
e 26 65
e 26 77
e 26 79
e 27 35
e 27 36
e 27 39
e 27 40
e 27 42
e 27 58
e 27 60
e 27 62
e 27 68
e 27 70
e 28 33
e 28 54
e 28 78
e 29 48
e 29 56
e 29 59
e 29 67
e 29 75
e 30 39
e 30 43
e 30 48
e 30 49
e 30 53
e 30 58
e 31 40
e 31 45
e 31 57
e 31 60
e 31 65
e 31 66
e 31 74
e 32 58
e 32 67
e 32 69
e 33 69
e 33 73
e 34 51
e 34 58
e 34 60
e 34 61
e 34 74
e 34 76
e 35 51
e 35 55
e 35 59
e 36 62
e 36 72
e 37 46
e 37 49
e 37 59
e 37 62
e 37 66
e 38 40
e 38 41
e 38 43
e 38 44
e 38 65
e 39 40
e 39 45
e 39 52
e 39 56
e 39 64
e 40 60
e 40 66
e 41 47
e 41 58
e 41 71
e 42 44
e 42 47
e 42 52
e 42 71
e 42 77
e 42 80
e 43 44
e 43 50
e 43 52
e 43 55
e 43 56
e 43 61
e 43 66
e 43 68
e 43 72
e 44 48
e 44 61
e 44 67
e 44 70
e 44 72
e 45 51
e 45 52
e 45 53
e 45 63
e 45 70
e 45 78
e 46 58
e 46 59
e 46 75
e 47 60
e 47 62
e 47 67
e 48 50
e 48 53
e 48 62
e 48 75
e 49 52
e 49 59
e 49 70
e 49 76
e 50 51
e 50 62
e 50 65
e 50 71
e 51 68
e 52 58
e 52 60
e 52 74
e 52 79
e 53 54
e 53 57
e 53 61
e 53 63
e 54 57
e 54 73
e 55 63
e 55 68
e 56 60
e 56 64
e 56 65
e 57 59
e 57 67
e 57 71
e 57 79
e 58 64
e 58 65
e 58 74
e 59 60
e 59 61
e 59 72
e 59 76
e 60 73
e 60 78
e 61 68
e 61 72
e 61 79
e 62 63
e 62 69
e 62 75
e 63 66
e 64 80
e 65 80
e 66 68
e 66 78
e 67 68
e 67 74
e 67 77
e 69 71
e 69 72
e 69 80
e 70 79
e 71 73
e 71 77
e 71 78
e 73 77
e 74 76
e 75 76
e 76 80
